param n := 50;
param c := 150;
param w := 
1 149
2 140
3 135
4 132
5 129
6 125
7 122
8 119
9 116
10 109
11 106
12 104
13 104
14 94
15 91
16 91
17 90
18 87
19 78
20 73
21 72
22 72
23 70
24 69
25 69
26 64
27 61
28 56
29 52
30 48
31 47
32 46
33 40
34 40
35 37
36 36
37 36
38 36
39 31
40 31
41 31
42 30
43 29
44 21
45 20
46 19
47 17
48 11
49 8
50 2
;